bestever    3359    in generation 0
[19, 10, 10, 12, 11, 17, 8, 3, 20, 10, 3, 11, 20, 11, 20, 6, 20, 19, 12, 5, 5, 20, 17, 7, 9, 1, 10, 11, 1, 4, 8, 1, 9, 2, 8, 5, 2, 7, 17, 17, 18, 15, 19, 8, 9, 11, 3, 12, 5, 14, 19, 4, 12, 10, 15, 12, 5, 20, 3, 1, 13, 16, 4, 15, 13, 11, 1, 12, 1, 6, 16, 5, 18, 7, 11, 2, 3, 5, 6, 7, 14, 4, 18, 17, 10, 13, 9, 1, 10, 18, 8, 2, 2, 4, 12, 5, 3, 14, 4, 8, 3, 1, 12, 16, 15, 14, 3, 7, 8, 19, 3, 1, 17, 20, 8, 13, 14, 9, 6, 6, 9, 16, 14, 6, 2, 4, 16, 14, 9, 12, 12, 14, 10, 4, 4, 9, 9, 15, 6, 15, 20, 5, 18, 19, 15, 17, 13, 5, 7, 13, 10, 20, 16, 10, 6, 4, 14, 16, 15, 19, 15, 13, 2, 20, 13, 16, 19, 17, 8, 19, 6, 7, 7, 11, 3, 17, 18, 15, 7, 19, 11, 18, 2, 2, 18, 13, 18, 11, 16, 2, 13, 8, 17, 14, 7, 9, 16, 1, 18, 6]
bestever    3238    in generation 1
[15, 7, 19, 18, 10, 5, 6, 6, 9, 10, 5, 16, 17, 18, 17, 17, 5, 1, 20, 18, 8, 10, 9, 11, 8, 9, 11, 11, 17, 8, 20, 19, 12, 12, 3, 10, 5, 19, 10, 14, 8, 13, 11, 14, 16, 8, 1, 2, 9, 13, 7, 11, 14, 3, 10, 11, 1, 12, 7, 10, 1, 4, 4, 4, 3, 1, 20, 1, 2, 18, 2, 5, 4, 1, 1, 2, 4, 3, 7, 12, 2, 3, 5, 3, 5, 3, 12, 5, 12, 12, 20, 20, 12, 20, 8, 14, 18, 17, 6, 7, 16, 9, 1, 16, 15, 14, 3, 7, 8, 19, 3, 1, 17, 20, 8, 13, 14, 9, 6, 6, 9, 16, 14, 6, 2, 4, 16, 14, 9, 12, 12, 14, 10, 4, 4, 9, 9, 15, 6, 15, 20, 5, 18, 19, 15, 17, 13, 5, 7, 13, 10, 20, 16, 10, 6, 4, 14, 16, 15, 19, 15, 13, 2, 20, 13, 16, 19, 17, 8, 19, 6, 7, 7, 11, 3, 17, 18, 15, 7, 19, 11, 18, 2, 2, 18, 13, 18, 11, 16, 2, 13, 19, 6, 8, 4, 11, 17, 13, 15, 15]
bestever    2985    in generation 2
[18, 10, 5, 9, 10, 5, 17, 18, 17, 17, 5, 1, 20, 18, 8, 10, 9, 11, 8, 9, 11, 11, 17, 8, 20, 19, 12, 12, 3, 10, 5, 19, 10, 14, 8, 13, 11, 14, 8, 1, 2, 9, 13, 7, 11, 14, 3, 11, 1, 12, 7, 10, 1, 4, 4, 4, 3, 1, 20, 1, 18, 2, 5, 4, 1, 1, 2, 3, 7, 12, 2, 3, 5, 3, 5, 3, 12, 5, 12, 12, 20, 20, 12, 8, 18, 17, 7, 16, 1, 16, 15, 3, 7, 8, 19, 3, 1, 17, 20, 8, 13, 16, 6, 2, 16, 14, 14, 10, 4, 9, 15, 6, 15, 20, 6, 13, 14, 9, 6, 6, 9, 16, 14, 6, 2, 4, 16, 14, 9, 12, 12, 14, 10, 4, 4, 9, 9, 15, 6, 15, 20, 5, 18, 19, 15, 17, 13, 5, 7, 13, 10, 20, 16, 10, 6, 4, 14, 16, 15, 19, 2, 20, 13, 16, 19, 17, 8, 19, 6, 7, 7, 11, 3, 17, 18, 7, 19, 11, 18, 2, 2, 18, 13, 18, 11, 16, 2, 13, 19, 6, 8, 4, 11, 17, 13, 15, 15, 15, 7, 19]
bestever    2890    in generation 3
[10, 5, 6, 6, 9, 10, 5, 16, 17, 17, 5, 1, 20, 18, 8, 10, 9, 11, 8, 9, 11, 8, 20, 19, 12, 12, 3, 10, 5, 10, 14, 8, 11, 14, 8, 1, 2, 9, 7, 11, 14, 3, 11, 1, 12, 7, 10, 1, 4, 4, 4, 3, 1, 20, 1, 18, 2, 5, 4, 1, 1, 3, 12, 3, 5, 3, 5, 3, 12, 5, 12, 12, 20, 20, 12, 8, 14, 18, 6, 7, 16, 9, 1, 16, 3, 7, 3, 1, 17, 20, 9, 16, 6, 2, 16, 14, 14, 10, 4, 9, 6, 20, 14, 6, 2, 4, 12, 9, 15, 18, 15, 17, 7, 13, 14, 15, 13, 2, 13, 16, 17, 8, 19, 7, 12, 14, 10, 4, 4, 9, 9, 6, 20, 5, 18, 15, 17, 5, 13, 10, 20, 16, 10, 4, 14, 15, 15, 13, 2, 13, 16, 19, 17, 8, 19, 6, 7, 11, 15, 19, 15, 13, 2, 20, 13, 16, 19, 17, 8, 19, 6, 7, 11, 3, 17, 18, 7, 19, 11, 18, 2, 2, 18, 13, 18, 11, 16, 2, 13, 19, 6, 8, 4, 11, 17, 15, 15, 7, 19, 18]
bestever    2889    in generation 4
[19, 10, 5, 6, 6, 9, 10, 6, 5, 16, 17, 5, 1, 20, 8, 10, 9, 11, 8, 9, 11, 11, 17, 8, 20, 19, 12, 12, 3, 10, 5, 10, 14, 8, 13, 14, 8, 1, 9, 13, 14, 3, 10, 16, 1, 12, 10, 1, 14, 4, 4, 3, 1, 18, 1, 2, 20, 2, 5, 4, 1, 1, 4, 3, 7, 12, 2, 4, 3, 5, 3, 5, 3, 12, 3, 3, 5, 12, 1, 12, 20, 20, 12, 20, 20, 18, 16, 1, 6, 14, 9, 6, 9, 16, 14, 2, 4, 16, 14, 9, 12, 12, 14, 10, 4, 16, 4, 4, 9, 9, 6, 20, 5, 18, 17, 5, 10, 10, 4, 14, 15, 15, 17, 8, 6, 7, 15, 15, 20, 13, 16, 17, 8, 19, 6, 19, 17, 8, 19, 6, 7, 11, 15, 19, 15, 13, 20, 13, 16, 19, 17, 8, 19, 6, 7, 11, 17, 18, 15, 7, 19, 11, 2, 2, 18, 13, 18, 11, 16, 2, 13, 7, 7, 11, 3, 17, 18, 15, 7, 19, 11, 18, 2, 2, 18, 13, 18, 11, 16, 2, 13, 8, 17, 14, 7, 9, 13, 15, 15, 7]
bestever    2726    in generation 5
[2, 2, 20, 20, 20, 16, 1, 6, 6, 6, 9, 16, 14, 6, 2, 4, 16, 14, 9, 14, 3, 10, 16, 12, 10, 14, 4, 4, 4, 3, 20, 2, 5, 4, 1, 1, 4, 3, 10, 1, 4, 4, 4, 3, 1, 20, 1, 5, 4, 1, 1, 3, 7, 12, 2, 3, 5, 3, 5, 3, 12, 5, 12, 12, 20, 7, 12, 2, 3, 5, 3, 5, 12, 5, 12, 1, 20, 20, 18, 1, 6, 14, 9, 9, 14, 14, 9, 14, 10, 9, 9, 5, 18, 12, 10, 2, 16, 9, 9, 5, 10, 14, 11, 11, 13, 18, 11, 13, 8, 17, 9, 17, 13, 15, 15, 7, 19, 18, 15, 14, 15, 15, 17, 8, 6, 7, 15, 15, 20, 13, 16, 17, 8, 19, 6, 19, 17, 8, 19, 6, 7, 11, 15, 19, 15, 13, 20, 13, 16, 19, 17, 8, 19, 6, 7, 11, 17, 18, 15, 7, 19, 11, 2, 2, 18, 13, 18, 11, 16, 2, 13, 7, 7, 6, 16, 17, 18, 17, 17, 18, 8, 8, 11, 19, 12, 10, 19, 10, 8, 13, 11, 8, 8, 13, 7, 10, 16, 11, 10, 18]
bestever    2713    in generation 6
[9, 10, 6, 5, 16, 17, 5, 1, 8, 10, 9, 11, 8, 9, 11, 11, 17, 8, 19, 12, 12, 3, 10, 5, 10, 14, 8, 13, 14, 8, 1, 9, 13, 14, 3, 10, 16, 1, 12, 10, 1, 14, 4, 4, 3, 1, 18, 1, 2, 2, 5, 4, 1, 1, 4, 3, 7, 12, 2, 4, 3, 5, 3, 5, 3, 3, 3, 5, 1, 12, 20, 12, 20, 20, 18, 16, 6, 14, 9, 12, 20, 20, 12, 20, 20, 18, 16, 1, 6, 14, 9, 6, 9, 16, 14, 2, 4, 16, 14, 9, 12, 12, 14, 10, 4, 4, 4, 9, 9, 6, 20, 5, 18, 17, 5, 10, 10, 4, 14, 15, 15, 17, 8, 6, 7, 15, 15, 20, 5, 10, 13, 19, 15, 13, 13, 19, 19, 15, 19, 13, 11, 13, 17, 17, 13, 15, 15, 15, 19, 15, 17, 17, 17, 11, 17, 19, 19, 13, 11, 8, 8, 13, 19, 11, 7, 8, 18, 11, 7, 7, 18, 7, 19, 11, 7, 8, 18, 2, 11, 7, 18, 2, 2, 7, 2, 7, 2, 3, 18, 16, 6, 16, 6, 16, 6, 18, 2, 16, 20, 6]
bestever    2642    in generation 9
[10, 5, 16, 17, 5, 1, 8, 10, 11, 8, 11, 11, 17, 8, 19, 12, 12, 3, 10, 5, 10, 14, 8, 13, 14, 8, 1, 13, 14, 3, 10, 16, 1, 12, 10, 1, 14, 4, 3, 1, 18, 1, 2, 2, 5, 4, 1, 1, 4, 3, 7, 12, 4, 3, 5, 3, 5, 3, 3, 3, 5, 12, 20, 12, 20, 20, 18, 6, 9, 20, 20, 20, 20, 18, 1, 6, 9, 6, 9, 2, 4, 16, 9, 12, 12, 14, 16, 1, 6, 14, 9, 6, 9, 16, 14, 2, 4, 16, 14, 9, 12, 12, 14, 10, 4, 4, 4, 9, 9, 6, 20, 5, 18, 17, 5, 10, 10, 4, 14, 15, 15, 17, 8, 6, 7, 15, 15, 20, 5, 10, 13, 19, 15, 13, 13, 19, 19, 15, 19, 13, 11, 13, 17, 17, 13, 15, 15, 15, 19, 15, 17, 17, 17, 11, 17, 19, 19, 13, 11, 8, 8, 13, 19, 11, 7, 8, 18, 11, 7, 7, 18, 7, 19, 11, 7, 8, 18, 2, 11, 7, 18, 2, 2, 7, 2, 7, 2, 3, 18, 16, 6, 16, 6, 16, 6, 18, 2, 16, 20, 9]
bestever    2615    in generation 10
[2, 2, 2, 2, 9, 3, 16, 16, 10, 10, 10, 14, 8, 13, 14, 8, 1, 9, 14, 3, 16, 1, 12, 1, 14, 4, 4, 3, 1, 18, 1, 20, 5, 4, 1, 1, 4, 3, 12, 4, 3, 5, 3, 3, 12, 3, 3, 20, 9, 14, 6, 16, 5, 12, 1, 12, 20, 20, 12, 20, 20, 1, 14, 9, 9, 14, 4, 14, 9, 12, 12, 14, 10, 4, 9, 20, 5, 17, 5, 17, 8, 6, 8, 8, 1, 9, 20, 12, 12, 20, 18, 10, 15, 15, 8, 6, 7, 10, 11, 13, 17, 11, 17, 19, 19, 13, 4, 4, 9, 9, 6, 20, 5, 18, 17, 5, 10, 10, 4, 14, 15, 15, 6, 7, 5, 10, 19, 15, 13, 19, 19, 15, 19, 13, 11, 13, 17, 13, 15, 15, 15, 19, 15, 17, 17, 17, 11, 17, 19, 19, 13, 11, 8, 13, 19, 11, 7, 8, 8, 8, 13, 7, 18, 18, 7, 7, 18, 2, 11, 7, 18, 2, 2, 7, 2, 7, 2, 3, 18, 16, 6, 16, 6, 16, 6, 18, 2, 16, 10, 5, 5, 16, 6, 16, 6, 7, 11, 11, 11, 18]
bestever    2442    in generation 11
[2, 9, 3, 16, 6, 16, 10, 10, 10, 14, 8, 14, 8, 1, 9, 14, 3, 16, 1, 12, 14, 4, 4, 3, 1, 18, 1, 20, 5, 4, 1, 1, 4, 3, 1, 2, 20, 2, 12, 4, 3, 5, 3, 3, 12, 3, 3, 20, 9, 14, 6, 16, 5, 12, 1, 12, 20, 20, 12, 20, 1, 14, 9, 9, 14, 4, 14, 9, 12, 12, 14, 10, 4, 4, 4, 9, 9, 20, 5, 5, 10, 10, 17, 8, 6, 8, 8, 9, 1, 9, 20, 12, 12, 20, 5, 18, 17, 5, 10, 4, 14, 17, 8, 6, 7, 5, 10, 19, 19, 19, 19, 13, 11, 13, 6, 7, 15, 15, 20, 10, 13, 19, 15, 13, 13, 19, 19, 15, 19, 13, 11, 13, 17, 17, 13, 15, 15, 15, 19, 15, 17, 17, 17, 13, 15, 15, 19, 17, 17, 13, 11, 8, 8, 11, 8, 18, 11, 7, 7, 18, 7, 11, 7, 8, 18, 2, 11, 7, 18, 7, 2, 7, 2, 3, 18, 16, 6, 16, 6, 16, 6, 18, 2, 16, 10, 5, 5, 16, 16, 6, 7, 11, 11, 6, 11, 18, 2, 18, 2, 2]
bestever    2440    in generation 13
[10, 10, 10, 14, 8, 13, 14, 8, 1, 9, 13, 14, 3, 16, 1, 12, 14, 4, 4, 3, 1, 1, 20, 5, 4, 1, 1, 4, 3, 1, 20, 12, 4, 3, 5, 3, 3, 12, 3, 20, 9, 14, 6, 16, 12, 1, 12, 20, 20, 12, 20, 1, 14, 9, 9, 14, 4, 14, 9, 12, 12, 14, 10, 4, 4, 4, 9, 9, 20, 17, 17, 8, 6, 20, 12, 12, 20, 17, 5, 17, 6, 5, 8, 11, 8, 8, 11, 8, 18, 11, 18, 7, 2, 8, 9, 1, 9, 5, 17, 5, 10, 10, 15, 5, 10, 10, 4, 14, 15, 8, 6, 7, 15, 15, 20, 5, 10, 13, 19, 15, 13, 13, 19, 19, 15, 19, 13, 11, 13, 17, 13, 15, 15, 15, 19, 15, 17, 17, 17, 11, 17, 19, 19, 13, 8, 13, 19, 11, 18, 11, 18, 2, 11, 18, 2, 7, 2, 3, 7, 7, 18, 7, 19, 11, 7, 18, 2, 11, 7, 18, 7, 2, 7, 2, 3, 18, 16, 6, 18, 16, 6, 16, 6, 16, 6, 2, 16, 10, 5, 5, 6, 16, 6, 2, 2, 9, 19, 3, 16, 16]
bestever    2433    in generation 14
[20, 5, 2, 20, 20, 1, 9, 9, 4, 9, 12, 12, 14, 10, 1, 12, 14, 4, 4, 3, 1, 1, 20, 5, 4, 1, 1, 4, 3, 1, 20, 12, 4, 3, 5, 3, 3, 12, 3, 20, 9, 14, 6, 16, 12, 1, 12, 20, 20, 12, 20, 1, 14, 9, 9, 14, 4, 14, 9, 12, 12, 14, 10, 4, 4, 4, 9, 9, 20, 17, 17, 14, 14, 9, 14, 10, 10, 10, 8, 8, 8, 1, 5, 18, 17, 18, 5, 10, 8, 6, 7, 5, 10, 19, 15, 19, 19, 15, 19, 11, 13, 17, 13, 15, 15, 15, 15, 5, 10, 13, 19, 15, 13, 13, 19, 19, 15, 19, 13, 11, 13, 17, 13, 15, 15, 17, 17, 17, 11, 17, 13, 11, 8, 13, 11, 7, 7, 7, 18, 7, 19, 11, 7, 18, 2, 11, 7, 18, 7, 2, 7, 2, 3, 18, 16, 6, 16, 6, 18, 2, 16, 5, 5, 16, 6, 16, 6, 7, 11, 11, 6, 11, 18, 18, 2, 2, 2, 19, 16, 6, 16, 8, 8, 16, 18, 5, 2, 2, 3, 3, 3, 6, 16, 17, 10, 10, 8, 6, 8, 8]
bestever    2414    in generation 18
[20, 5, 2, 20, 20, 1, 9, 9, 4, 9, 12, 12, 14, 10, 1, 12, 14, 4, 4, 3, 1, 1, 20, 5, 4, 1, 1, 4, 3, 1, 20, 12, 4, 3, 5, 3, 12, 3, 20, 9, 14, 6, 16, 12, 1, 12, 20, 20, 12, 20, 1, 14, 9, 9, 14, 4, 14, 9, 12, 12, 14, 10, 4, 4, 4, 9, 9, 20, 17, 17, 14, 14, 14, 10, 10, 10, 8, 8, 8, 1, 5, 18, 17, 18, 5, 10, 8, 6, 7, 5, 10, 19, 15, 19, 19, 15, 19, 11, 13, 17, 13, 15, 15, 15, 15, 5, 13, 19, 15, 13, 13, 19, 19, 15, 19, 13, 11, 13, 17, 13, 15, 15, 17, 17, 17, 11, 17, 13, 11, 8, 13, 11, 7, 7, 7, 18, 7, 19, 11, 7, 18, 2, 11, 7, 18, 7, 2, 2, 3, 18, 11, 11, 11, 19, 16, 18, 7, 7, 2, 3, 18, 16, 6, 18, 16, 6, 16, 6, 16, 6, 2, 16, 10, 5, 5, 6, 16, 6, 2, 2, 9, 8, 8, 16, 18, 5, 2, 2, 3, 3, 3, 6, 16, 17, 10, 10, 8, 6, 8, 8]
bestever    2405    in generation 41
[20, 5, 20, 20, 1, 9, 9, 4, 9, 12, 12, 14, 10, 1, 12, 14, 4, 4, 3, 1, 1, 20, 5, 4, 1, 1, 4, 3, 1, 20, 12, 4, 3, 5, 3, 12, 20, 9, 14, 12, 1, 12, 20, 20, 12, 20, 1, 14, 9, 9, 14, 4, 14, 9, 12, 12, 14, 10, 4, 4, 4, 9, 9, 20, 17, 17, 14, 14, 14, 10, 10, 10, 8, 1, 5, 18, 17, 18, 5, 7, 5, 10, 19, 15, 19, 19, 15, 19, 11, 13, 13, 15, 15, 15, 15, 13, 19, 15, 13, 13, 19, 19, 15, 8, 10, 6, 9, 8, 8, 5, 2, 19, 13, 11, 13, 17, 13, 15, 15, 17, 17, 17, 11, 17, 13, 11, 8, 13, 11, 7, 7, 7, 18, 7, 19, 11, 7, 18, 2, 11, 7, 18, 7, 2, 2, 3, 18, 11, 11, 11, 19, 16, 18, 7, 7, 2, 3, 18, 16, 6, 18, 16, 6, 16, 6, 16, 6, 2, 16, 10, 5, 5, 6, 16, 6, 2, 2, 8, 8, 16, 18, 5, 2, 2, 3, 6, 16, 17, 3, 3, 3, 6, 16, 17, 10, 10, 8, 6, 8, 8]
bestever    2399    in generation 42
[20, 5, 20, 20, 1, 9, 9, 4, 9, 12, 12, 14, 10, 1, 12, 14, 4, 4, 3, 1, 1, 20, 4, 1, 1, 4, 3, 1, 20, 12, 4, 3, 3, 12, 20, 9, 14, 12, 1, 12, 20, 20, 12, 20, 1, 14, 9, 9, 14, 4, 14, 9, 12, 12, 14, 10, 4, 4, 4, 9, 9, 20, 17, 17, 14, 14, 14, 10, 10, 10, 8, 1, 5, 18, 17, 18, 5, 7, 5, 10, 19, 15, 19, 19, 15, 19, 11, 13, 13, 15, 15, 15, 15, 13, 19, 15, 13, 13, 19, 19, 15, 8, 10, 6, 9, 8, 8, 5, 2, 19, 13, 11, 13, 17, 13, 15, 15, 17, 17, 17, 11, 17, 13, 11, 8, 13, 11, 7, 7, 7, 18, 7, 19, 11, 7, 18, 2, 11, 7, 18, 7, 2, 2, 3, 18, 11, 11, 11, 19, 16, 18, 7, 7, 2, 3, 18, 18, 16, 6, 16, 6, 16, 5, 5, 6, 16, 6, 2, 16, 10, 5, 5, 6, 16, 6, 2, 2, 8, 8, 16, 18, 5, 2, 2, 3, 6, 16, 17, 3, 3, 3, 6, 16, 17, 10, 10, 8, 6, 8, 8]
bestever    2328    in generation 45
[20, 5, 20, 20, 1, 9, 9, 4, 9, 12, 12, 14, 10, 1, 12, 14, 4, 4, 3, 1, 1, 20, 4, 1, 1, 4, 3, 1, 20, 12, 4, 3, 3, 12, 20, 9, 14, 12, 1, 12, 20, 20, 12, 20, 1, 14, 9, 9, 14, 4, 14, 9, 12, 12, 14, 10, 4, 4, 4, 9, 9, 20, 17, 17, 14, 14, 14, 10, 10, 10, 8, 1, 5, 18, 17, 18, 5, 7, 5, 10, 19, 15, 19, 19, 15, 19, 11, 13, 13, 15, 15, 15, 15, 13, 19, 15, 13, 13, 19, 19, 15, 8, 10, 6, 9, 8, 8, 5, 2, 19, 13, 11, 13, 17, 13, 15, 15, 17, 17, 17, 11, 17, 13, 11, 8, 13, 11, 7, 7, 7, 18, 7, 19, 11, 7, 18, 2, 11, 7, 18, 7, 2, 2, 3, 18, 11, 11, 11, 19, 16, 18, 7, 7, 2, 3, 18, 18, 16, 6, 16, 6, 16, 5, 5, 6, 16, 6, 2, 16, 10, 5, 5, 6, 16, 6, 2, 2, 8, 8, 16, 18, 5, 2, 2, 3, 6, 10, 3, 10, 17, 3, 3, 16, 6, 16, 17, 8, 6, 8, 8]
bestever    2314    in generation 70
[4, 1, 1, 4, 3, 1, 20, 12, 4, 3, 3, 12, 20, 9, 14, 12, 1, 12, 20, 12, 1, 14, 5, 10, 12, 4, 3, 9, 14, 1, 12, 20, 12, 20, 20, 20, 1, 14, 12, 20, 20, 12, 9, 9, 14, 4, 9, 10, 4, 4, 9, 9, 20, 17, 17, 14, 14, 14, 10, 10, 1, 9, 9, 4, 14, 14, 4, 4, 1, 10, 8, 1, 5, 18, 17, 18, 5, 7, 5, 10, 19, 15, 19, 19, 15, 19, 11, 13, 13, 15, 15, 15, 15, 13, 19, 15, 13, 13, 19, 19, 15, 8, 10, 6, 9, 8, 5, 2, 19, 13, 11, 13, 17, 13, 15, 15, 17, 17, 11, 17, 13, 11, 8, 13, 11, 7, 7, 7, 18, 19, 11, 7, 18, 2, 11, 7, 18, 7, 2, 2, 3, 18, 11, 11, 11, 19, 16, 18, 7, 7, 2, 3, 18, 18, 16, 6, 16, 6, 16, 5, 5, 6, 8, 17, 7, 16, 6, 2, 16, 10, 5, 5, 6, 16, 6, 2, 2, 8, 8, 16, 18, 5, 2, 2, 3, 6, 10, 3, 10, 17, 3, 3, 16, 6, 16, 17, 8, 6, 8, 8]
bestever    2223    in generation 75
[4, 1, 1, 4, 3, 1, 20, 12, 4, 3, 3, 12, 20, 9, 14, 12, 1, 12, 20, 12, 1, 14, 5, 10, 12, 4, 3, 9, 14, 1, 12, 20, 12, 20, 20, 20, 1, 14, 12, 20, 20, 12, 9, 9, 14, 4, 9, 10, 4, 4, 9, 9, 20, 17, 17, 14, 14, 14, 10, 10, 1, 9, 9, 4, 14, 14, 4, 4, 1, 10, 1, 5, 18, 17, 18, 5, 7, 5, 10, 19, 15, 19, 19, 15, 19, 11, 13, 13, 15, 15, 15, 15, 13, 19, 15, 13, 13, 19, 19, 15, 10, 9, 5, 2, 19, 13, 11, 13, 17, 13, 15, 15, 17, 17, 11, 8, 8, 8, 6, 17, 13, 11, 8, 13, 11, 7, 7, 7, 18, 19, 11, 7, 18, 2, 11, 7, 18, 7, 2, 2, 3, 18, 11, 11, 11, 19, 16, 18, 7, 7, 2, 3, 18, 18, 16, 6, 16, 6, 16, 5, 5, 6, 8, 17, 7, 16, 6, 2, 16, 10, 5, 5, 6, 16, 6, 2, 2, 8, 8, 16, 18, 5, 2, 2, 3, 6, 10, 3, 10, 17, 3, 3, 16, 6, 16, 17, 8, 6, 8, 8]
bestever    2221    in generation 80
[4, 1, 1, 4, 3, 1, 20, 12, 4, 3, 3, 12, 20, 9, 14, 12, 1, 12, 20, 12, 1, 14, 5, 10, 12, 4, 3, 9, 14, 1, 12, 20, 12, 20, 20, 20, 1, 14, 12, 20, 20, 12, 9, 9, 14, 4, 9, 10, 4, 4, 9, 9, 20, 17, 17, 14, 14, 14, 10, 10, 1, 9, 9, 4, 14, 14, 4, 4, 1, 10, 1, 5, 18, 17, 18, 5, 7, 5, 10, 19, 15, 19, 19, 15, 19, 11, 13, 13, 15, 15, 15, 15, 13, 19, 15, 13, 13, 19, 19, 15, 10, 9, 5, 2, 19, 13, 11, 13, 17, 13, 15, 15, 17, 17, 11, 8, 8, 6, 17, 13, 11, 13, 11, 7, 7, 7, 18, 19, 11, 7, 18, 2, 11, 7, 18, 7, 2, 2, 3, 18, 11, 11, 11, 19, 16, 18, 7, 7, 2, 3, 18, 18, 16, 6, 16, 6, 16, 5, 5, 6, 8, 7, 16, 6, 2, 10, 5, 5, 2, 8, 8, 3, 6, 16, 6, 2, 2, 8, 8, 16, 18, 5, 2, 3, 6, 10, 3, 10, 17, 3, 16, 6, 16, 17, 16, 17, 8, 6, 8, 8]
bestever    2209    in generation 93
[1, 1, 4, 3, 1, 20, 12, 4, 3, 3, 12, 20, 9, 14, 12, 1, 12, 20, 14, 5, 10, 4, 9, 14, 1, 12, 20, 12, 20, 20, 20, 14, 12, 20, 20, 12, 9, 9, 14, 4, 9, 10, 4, 9, 9, 20, 17, 17, 14, 14, 14, 10, 10, 1, 9, 9, 4, 14, 14, 4, 4, 1, 10, 1, 5, 18, 18, 5, 7, 19, 5, 17, 17, 4, 1, 3, 1, 12, 12, 10, 15, 19, 19, 15, 19, 11, 13, 13, 15, 15, 15, 15, 13, 19, 15, 13, 13, 19, 19, 15, 10, 9, 5, 2, 19, 13, 11, 13, 17, 13, 15, 15, 17, 17, 11, 8, 8, 6, 17, 13, 11, 13, 11, 7, 7, 7, 18, 19, 11, 7, 18, 2, 11, 7, 18, 7, 2, 2, 3, 18, 11, 11, 11, 19, 16, 18, 7, 7, 2, 3, 18, 18, 16, 6, 16, 6, 16, 5, 5, 6, 8, 7, 16, 6, 2, 10, 5, 5, 2, 8, 8, 3, 6, 16, 6, 2, 2, 8, 8, 16, 18, 5, 2, 3, 6, 10, 3, 10, 17, 3, 16, 6, 16, 17, 16, 6, 8, 8, 8, 4]
bestever    2176    in generation 103
[1, 1, 4, 3, 1, 20, 12, 4, 3, 3, 12, 20, 9, 14, 12, 1, 12, 20, 14, 5, 10, 4, 9, 14, 1, 12, 20, 12, 20, 20, 20, 14, 12, 20, 20, 12, 9, 9, 14, 4, 9, 10, 4, 9, 9, 20, 17, 17, 14, 14, 14, 10, 10, 1, 9, 9, 4, 14, 14, 4, 4, 1, 10, 1, 5, 18, 18, 5, 7, 19, 5, 17, 17, 4, 1, 3, 1, 12, 12, 10, 15, 19, 19, 15, 19, 11, 13, 13, 15, 15, 15, 15, 13, 19, 15, 13, 13, 19, 19, 15, 10, 9, 5, 2, 19, 13, 11, 13, 17, 13, 15, 15, 17, 17, 11, 8, 8, 6, 17, 13, 11, 13, 11, 7, 7, 7, 18, 19, 11, 7, 18, 2, 11, 7, 18, 7, 2, 2, 3, 18, 11, 11, 11, 19, 16, 18, 7, 7, 2, 3, 18, 18, 16, 6, 16, 6, 16, 5, 5, 6, 8, 7, 16, 6, 2, 10, 5, 5, 2, 8, 8, 3, 6, 16, 6, 2, 2, 8, 16, 18, 5, 2, 8, 3, 6, 10, 3, 10, 17, 3, 16, 6, 16, 17, 16, 6, 8, 8, 8, 4]
bestever    2157    in generation 118
[1, 1, 4, 3, 1, 20, 12, 4, 3, 3, 12, 20, 9, 14, 12, 1, 12, 20, 14, 5, 10, 4, 9, 14, 1, 12, 20, 12, 20, 20, 20, 14, 12, 20, 20, 12, 9, 9, 14, 4, 9, 10, 4, 9, 9, 20, 17, 17, 14, 14, 14, 10, 10, 1, 9, 9, 4, 14, 14, 4, 4, 1, 10, 1, 5, 18, 18, 5, 7, 19, 5, 17, 17, 4, 1, 1, 12, 12, 10, 15, 19, 19, 15, 19, 11, 13, 13, 15, 15, 15, 15, 13, 19, 15, 13, 13, 19, 19, 15, 10, 9, 5, 2, 19, 13, 11, 13, 17, 13, 15, 15, 17, 17, 11, 6, 17, 13, 11, 13, 11, 7, 7, 7, 18, 19, 11, 7, 18, 2, 11, 7, 18, 7, 2, 2, 3, 18, 11, 11, 11, 19, 16, 18, 7, 7, 2, 3, 18, 18, 16, 6, 5, 5, 7, 16, 6, 2, 10, 5, 5, 2, 8, 3, 6, 16, 6, 8, 16, 8, 8, 8, 3, 6, 16, 6, 2, 2, 8, 16, 18, 5, 2, 8, 3, 6, 10, 3, 10, 17, 3, 16, 6, 16, 17, 16, 6, 8, 8, 8, 4]
bestever    2153    in generation 193
[1, 1, 4, 3, 1, 20, 4, 3, 3, 20, 9, 14, 12, 1, 12, 20, 14, 5, 10, 4, 9, 14, 1, 12, 20, 12, 20, 20, 20, 14, 12, 20, 20, 12, 9, 9, 14, 4, 9, 10, 12, 12, 4, 9, 9, 20, 17, 17, 14, 14, 14, 10, 10, 1, 9, 9, 4, 14, 14, 4, 4, 1, 10, 1, 5, 18, 18, 5, 7, 19, 5, 17, 17, 4, 1, 1, 12, 12, 10, 15, 19, 19, 15, 19, 11, 13, 13, 15, 15, 15, 15, 13, 19, 15, 13, 13, 19, 19, 15, 10, 9, 5, 2, 19, 13, 11, 13, 17, 13, 15, 15, 17, 17, 11, 6, 17, 13, 11, 13, 11, 7, 7, 7, 18, 19, 11, 7, 18, 2, 11, 7, 18, 7, 2, 2, 3, 18, 11, 11, 11, 19, 16, 18, 7, 7, 2, 3, 18, 18, 16, 6, 5, 5, 7, 16, 6, 2, 10, 5, 5, 2, 8, 3, 6, 16, 6, 8, 16, 8, 8, 8, 3, 6, 16, 6, 2, 2, 8, 16, 18, 5, 2, 8, 3, 6, 10, 3, 10, 17, 3, 16, 6, 16, 17, 16, 6, 8, 8, 8, 4]
bestever    2127    in generation 204
[12, 20, 12, 20, 20, 20, 14, 12, 20, 20, 12, 9, 9, 14, 4, 9, 12, 12, 9, 9, 20, 14, 14, 14, 9, 9, 4, 1, 1, 10, 17, 17, 3, 4, 1, 20, 4, 3, 3, 10, 5, 4, 14, 14, 4, 1, 10, 1, 4, 10, 4, 1, 12, 12, 9, 20, 9, 14, 20, 14, 4, 1, 10, 1, 5, 18, 18, 5, 7, 19, 5, 17, 17, 4, 1, 1, 12, 12, 10, 15, 19, 19, 15, 19, 11, 13, 13, 15, 15, 15, 15, 13, 19, 15, 13, 13, 19, 19, 15, 10, 9, 5, 2, 19, 13, 11, 13, 17, 13, 15, 15, 17, 17, 11, 6, 17, 13, 11, 13, 11, 7, 7, 7, 18, 19, 11, 7, 18, 2, 11, 7, 18, 7, 2, 2, 3, 18, 11, 11, 11, 19, 16, 18, 7, 7, 2, 3, 18, 18, 16, 6, 5, 5, 7, 16, 6, 2, 10, 5, 5, 2, 8, 3, 6, 16, 6, 8, 16, 8, 8, 8, 3, 6, 16, 6, 2, 2, 8, 16, 18, 5, 2, 8, 3, 6, 10, 3, 10, 17, 3, 16, 6, 16, 17, 16, 6, 8, 8, 8, 14]
bestever    2115    in generation 397
[20, 4, 12, 12, 9, 20, 14, 14, 12, 12, 14, 14, 9, 9, 12, 14, 20, 20, 20, 20, 9, 9, 9, 1, 1, 10, 17, 17, 4, 1, 20, 20, 9, 4, 10, 5, 4, 14, 14, 4, 1, 10, 1, 4, 10, 4, 1, 12, 12, 9, 20, 9, 14, 20, 14, 4, 1, 10, 1, 5, 18, 18, 5, 7, 19, 5, 17, 17, 4, 1, 1, 12, 12, 15, 19, 19, 15, 19, 11, 13, 13, 15, 15, 15, 15, 13, 19, 15, 13, 13, 19, 19, 15, 10, 9, 5, 2, 19, 13, 11, 13, 17, 13, 15, 15, 17, 17, 11, 6, 17, 13, 11, 13, 11, 7, 7, 7, 18, 19, 11, 7, 18, 2, 11, 7, 18, 7, 2, 2, 18, 11, 11, 11, 10, 3, 3, 16, 3, 19, 16, 18, 7, 7, 2, 3, 18, 18, 16, 6, 5, 5, 7, 16, 6, 2, 10, 5, 5, 2, 8, 3, 6, 16, 8, 8, 8, 3, 2, 2, 3, 3, 12, 6, 16, 6, 16, 6, 18, 5, 2, 8, 10, 3, 10, 17, 3, 16, 6, 16, 17, 16, 6, 8, 8, 6, 8, 8, 8, 14, 4]
bestever    2092    in generation 401
[20, 4, 12, 12, 9, 20, 14, 14, 12, 12, 14, 14, 9, 9, 12, 14, 20, 20, 20, 20, 9, 9, 9, 1, 1, 10, 17, 17, 4, 1, 20, 20, 9, 4, 10, 5, 4, 14, 14, 4, 1, 10, 1, 4, 10, 4, 1, 12, 12, 9, 20, 9, 14, 20, 14, 4, 1, 10, 1, 5, 18, 18, 5, 7, 19, 5, 17, 17, 4, 1, 1, 12, 12, 15, 19, 19, 15, 19, 11, 13, 13, 15, 15, 15, 15, 13, 19, 15, 13, 13, 19, 19, 15, 10, 9, 5, 2, 19, 13, 11, 13, 17, 13, 15, 15, 17, 17, 11, 6, 17, 13, 11, 13, 11, 7, 7, 7, 18, 19, 11, 7, 18, 2, 11, 7, 18, 7, 2, 2, 18, 11, 11, 11, 10, 3, 3, 16, 3, 19, 18, 7, 7, 2, 3, 18, 18, 5, 5, 7, 2, 5, 2, 8, 3, 8, 8, 8, 3, 2, 3, 12, 16, 16, 6, 6, 16, 6, 16, 6, 16, 6, 16, 6, 18, 5, 2, 10, 3, 5, 2, 8, 10, 3, 10, 17, 3, 16, 6, 16, 17, 16, 6, 8, 8, 6, 8, 8, 8, 14, 4]
bestever    2062    in generation 492
[20, 4, 14, 4, 14, 12, 12, 14, 14, 9, 9, 14, 20, 20, 20, 20, 9, 9, 9, 1, 1, 10, 17, 17, 4, 1, 20, 20, 9, 4, 10, 4, 14, 14, 1, 10, 12, 12, 9, 20, 1, 4, 10, 4, 1, 12, 12, 9, 20, 9, 14, 20, 14, 1, 10, 1, 18, 18, 7, 19, 5, 17, 17, 4, 1, 1, 12, 12, 15, 19, 19, 15, 19, 11, 13, 13, 15, 15, 15, 15, 13, 19, 15, 13, 13, 19, 19, 15, 10, 9, 5, 19, 13, 11, 13, 17, 13, 15, 15, 17, 17, 11, 6, 17, 13, 11, 13, 11, 7, 7, 7, 18, 19, 11, 7, 11, 18, 7, 2, 2, 18, 11, 11, 11, 10, 3, 16, 3, 18, 7, 19, 18, 7, 2, 3, 18, 18, 5, 5, 7, 2, 5, 2, 3, 12, 5, 5, 7, 2, 5, 2, 3, 3, 2, 3, 12, 16, 16, 6, 6, 16, 6, 16, 6, 16, 6, 16, 6, 18, 5, 2, 10, 3, 5, 2, 8, 10, 3, 10, 17, 3, 16, 8, 8, 6, 16, 17, 16, 6, 8, 8, 6, 8, 8, 8, 4, 8, 8, 4, 14]
bestever    2054    in generation 538
[20, 4, 14, 4, 14, 12, 14, 9, 9, 14, 20, 20, 20, 20, 9, 9, 9, 1, 1, 10, 17, 17, 4, 1, 20, 4, 10, 4, 14, 14, 1, 10, 12, 12, 20, 1, 4, 10, 4, 1, 12, 12, 9, 12, 9, 20, 9, 14, 20, 9, 14, 20, 14, 1, 10, 1, 18, 18, 7, 19, 17, 17, 4, 1, 1, 12, 12, 15, 19, 19, 15, 19, 11, 13, 13, 15, 15, 15, 15, 13, 19, 15, 13, 13, 19, 19, 15, 10, 9, 5, 19, 13, 11, 13, 17, 13, 15, 15, 17, 17, 11, 6, 17, 13, 11, 13, 11, 7, 7, 7, 18, 19, 11, 7, 11, 18, 7, 2, 2, 18, 11, 11, 11, 10, 3, 16, 3, 7, 18, 5, 19, 18, 7, 2, 3, 18, 18, 5, 5, 7, 2, 5, 2, 12, 5, 5, 7, 2, 3, 5, 2, 3, 3, 2, 3, 12, 16, 16, 6, 6, 16, 6, 16, 6, 16, 6, 16, 6, 18, 5, 2, 10, 3, 5, 2, 8, 10, 3, 10, 17, 3, 16, 8, 8, 6, 16, 17, 16, 6, 8, 8, 6, 8, 8, 8, 4, 8, 8, 4, 14]
bestever    2035    in generation 718
[20, 4, 14, 4, 14, 12, 9, 9, 14, 20, 20, 20, 20, 9, 9, 9, 1, 1, 17, 17, 4, 1, 20, 4, 10, 4, 14, 14, 1, 10, 12, 12, 1, 4, 10, 4, 1, 12, 12, 9, 12, 20, 14, 20, 9, 9, 14, 20, 9, 14, 20, 14, 1, 10, 1, 18, 18, 7, 19, 17, 17, 1, 1, 12, 12, 15, 19, 19, 15, 4, 19, 11, 13, 13, 15, 15, 15, 15, 13, 19, 15, 13, 13, 19, 19, 15, 10, 9, 5, 19, 13, 11, 13, 17, 13, 15, 15, 17, 17, 11, 6, 17, 13, 11, 13, 7, 7, 7, 18, 11, 10, 19, 11, 7, 11, 18, 7, 2, 2, 18, 11, 11, 11, 10, 3, 16, 3, 7, 18, 5, 19, 18, 7, 2, 3, 18, 18, 5, 5, 7, 2, 5, 2, 12, 5, 5, 7, 2, 3, 2, 3, 3, 3, 12, 16, 16, 6, 6, 16, 6, 16, 6, 16, 6, 5, 2, 6, 18, 5, 2, 10, 3, 5, 2, 8, 10, 3, 10, 16, 17, 3, 16, 8, 8, 6, 16, 8, 8, 8, 8, 4, 14, 4, 6, 8, 17, 8, 8, 6, 16]
bestever    2023    in generation 801
[4, 20, 4, 14, 14, 12, 9, 9, 14, 20, 20, 20, 20, 9, 9, 9, 1, 1, 17, 17, 4, 1, 20, 4, 10, 4, 14, 14, 10, 12, 12, 1, 4, 10, 1, 12, 20, 20, 9, 14, 1, 9, 9, 14, 20, 9, 20, 14, 1, 10, 1, 18, 18, 7, 19, 17, 1, 12, 12, 1, 12, 15, 19, 19, 15, 19, 11, 13, 13, 15, 12, 14, 4, 17, 4, 15, 15, 15, 13, 19, 15, 13, 13, 19, 19, 15, 10, 9, 5, 19, 13, 11, 13, 17, 13, 15, 15, 17, 17, 11, 6, 17, 13, 11, 13, 7, 7, 7, 18, 11, 10, 19, 11, 7, 11, 18, 7, 2, 2, 18, 11, 11, 11, 10, 3, 3, 7, 18, 5, 19, 18, 7, 2, 3, 18, 18, 5, 5, 7, 2, 5, 2, 12, 5, 5, 7, 2, 16, 3, 2, 3, 3, 3, 12, 16, 16, 6, 6, 16, 6, 16, 6, 16, 6, 5, 2, 6, 18, 5, 2, 10, 3, 5, 2, 8, 10, 10, 14, 8, 6, 16, 8, 8, 8, 8, 4, 17, 4, 6, 3, 16, 3, 16, 8, 8, 17, 8, 8, 6, 16]
bestever    2020    in generation 1002
[20, 4, 4, 14, 14, 12, 9, 9, 14, 20, 20, 20, 20, 9, 9, 9, 1, 1, 17, 17, 4, 1, 20, 4, 10, 4, 14, 14, 10, 12, 12, 1, 4, 10, 1, 12, 20, 9, 14, 1, 9, 14, 9, 20, 1, 19, 10, 1, 18, 18, 7, 19, 17, 1, 12, 1, 12, 15, 19, 19, 15, 19, 11, 13, 13, 15, 12, 14, 4, 17, 12, 14, 4, 15, 20, 20, 15, 9, 15, 13, 19, 15, 13, 13, 19, 19, 15, 10, 9, 5, 13, 11, 13, 17, 13, 15, 15, 17, 17, 11, 17, 13, 11, 13, 7, 7, 7, 18, 11, 10, 19, 11, 7, 11, 18, 7, 2, 2, 18, 11, 11, 11, 10, 3, 3, 7, 18, 5, 19, 18, 7, 2, 3, 8, 18, 18, 5, 5, 7, 2, 5, 2, 12, 5, 5, 7, 2, 3, 2, 3, 3, 3, 12, 16, 6, 6, 16, 16, 6, 16, 6, 16, 6, 16, 6, 5, 2, 6, 18, 5, 2, 10, 3, 5, 2, 8, 10, 10, 14, 8, 6, 16, 8, 8, 8, 4, 17, 4, 6, 3, 16, 8, 3, 16, 16, 6, 8, 17, 8, 8]
bestever    2011    in generation 1111
[20, 4, 4, 14, 14, 16, 9, 9, 14, 20, 20, 20, 20, 9, 9, 9, 1, 1, 17, 17, 4, 1, 20, 4, 10, 4, 14, 14, 10, 12, 12, 1, 4, 10, 1, 12, 20, 9, 14, 1, 9, 14, 9, 20, 1, 19, 10, 1, 18, 15, 7, 19, 17, 1, 12, 1, 12, 15, 19, 19, 15, 19, 11, 13, 13, 15, 12, 14, 4, 17, 12, 14, 4, 15, 20, 20, 18, 9, 15, 13, 19, 15, 13, 13, 19, 19, 15, 10, 9, 13, 11, 13, 17, 13, 15, 15, 17, 17, 11, 17, 13, 11, 13, 7, 7, 7, 18, 11, 10, 19, 11, 7, 11, 18, 7, 2, 18, 11, 11, 11, 10, 3, 3, 7, 18, 19, 18, 7, 2, 3, 8, 18, 5, 2, 5, 18, 5, 5, 7, 2, 5, 2, 12, 5, 5, 7, 2, 3, 2, 3, 3, 3, 12, 16, 6, 6, 16, 12, 6, 16, 16, 6, 6, 16, 6, 5, 2, 6, 18, 5, 2, 10, 3, 5, 2, 8, 10, 10, 14, 8, 6, 16, 8, 8, 8, 4, 4, 17, 16, 16, 16, 6, 8, 8, 17, 3, 8, 3, 8, 6]
bestever    2006    in generation 1137
[20, 4, 4, 14, 14, 16, 9, 9, 14, 20, 20, 20, 20, 9, 9, 9, 1, 1, 17, 17, 4, 1, 20, 4, 10, 4, 14, 14, 10, 12, 12, 1, 4, 10, 1, 12, 20, 9, 14, 1, 9, 14, 9, 20, 1, 19, 10, 1, 18, 15, 7, 19, 17, 1, 12, 1, 12, 15, 19, 19, 15, 19, 11, 13, 13, 15, 12, 14, 4, 17, 12, 14, 4, 15, 20, 20, 18, 9, 15, 13, 19, 15, 13, 13, 19, 19, 15, 10, 9, 13, 11, 13, 17, 13, 15, 15, 17, 17, 11, 17, 13, 11, 13, 7, 7, 7, 18, 11, 10, 19, 11, 7, 11, 18, 7, 2, 18, 11, 11, 11, 10, 3, 3, 7, 18, 19, 18, 7, 2, 3, 8, 18, 5, 2, 5, 18, 5, 5, 7, 2, 5, 2, 12, 5, 5, 7, 2, 3, 2, 3, 3, 3, 12, 16, 6, 6, 16, 12, 6, 16, 16, 6, 6, 16, 6, 5, 2, 6, 18, 5, 2, 10, 5, 2, 8, 10, 10, 14, 8, 16, 8, 8, 4, 4, 17, 16, 3, 8, 6, 16, 16, 6, 8, 8, 17, 3, 8, 3, 8, 6]
bestever    1994    in generation 1166
[20, 4, 4, 14, 14, 16, 9, 9, 14, 20, 20, 20, 20, 9, 9, 9, 1, 1, 17, 17, 4, 1, 20, 4, 10, 4, 14, 14, 10, 12, 12, 1, 4, 10, 1, 12, 20, 9, 14, 1, 9, 14, 9, 20, 1, 19, 10, 1, 18, 15, 19, 17, 1, 12, 1, 12, 15, 19, 19, 15, 19, 11, 13, 13, 15, 12, 14, 4, 17, 12, 14, 4, 15, 20, 20, 9, 15, 13, 19, 15, 13, 13, 19, 19, 10, 9, 11, 13, 17, 13, 15, 13, 15, 15, 17, 17, 17, 13, 7, 18, 11, 11, 13, 7, 7, 7, 18, 11, 10, 19, 11, 7, 11, 18, 7, 2, 18, 11, 11, 11, 10, 3, 3, 7, 18, 19, 18, 7, 2, 3, 8, 18, 5, 2, 5, 5, 5, 5, 7, 2, 5, 2, 12, 5, 18, 7, 2, 3, 2, 3, 3, 3, 12, 16, 6, 6, 16, 12, 6, 16, 16, 6, 6, 16, 6, 5, 2, 6, 18, 5, 2, 10, 5, 2, 8, 10, 10, 14, 8, 16, 8, 8, 4, 4, 17, 16, 3, 8, 6, 16, 16, 6, 8, 8, 17, 3, 8, 3, 8, 6]
bestever    1986    in generation 1173
[20, 4, 4, 14, 14, 16, 9, 9, 14, 20, 20, 20, 20, 9, 9, 9, 1, 1, 17, 17, 4, 1, 20, 4, 10, 4, 14, 14, 10, 12, 12, 1, 4, 10, 1, 12, 20, 9, 14, 1, 9, 14, 9, 20, 1, 19, 10, 1, 18, 15, 19, 17, 1, 12, 1, 12, 15, 19, 19, 15, 19, 11, 13, 13, 15, 12, 14, 4, 17, 12, 14, 4, 15, 20, 20, 9, 15, 13, 19, 15, 13, 13, 19, 19, 10, 9, 11, 13, 17, 13, 15, 13, 15, 15, 17, 17, 17, 13, 7, 18, 11, 11, 13, 7, 7, 7, 18, 11, 10, 19, 11, 7, 11, 18, 7, 2, 18, 11, 11, 11, 10, 3, 3, 7, 18, 19, 18, 7, 2, 3, 8, 18, 5, 2, 5, 5, 5, 5, 7, 2, 5, 2, 12, 5, 18, 7, 2, 3, 2, 3, 3, 3, 12, 16, 6, 6, 16, 12, 6, 16, 16, 6, 6, 16, 6, 5, 2, 18, 5, 2, 10, 5, 2, 8, 10, 10, 14, 8, 16, 6, 8, 8, 4, 4, 17, 16, 3, 8, 6, 16, 16, 6, 8, 8, 17, 3, 8, 3, 8, 6]
bestever    1969    in generation 1193
[9, 14, 20, 20, 20, 20, 9, 9, 9, 1, 1, 17, 17, 4, 1, 20, 4, 10, 4, 14, 14, 10, 12, 12, 1, 4, 14, 14, 10, 12, 1, 4, 20, 9, 14, 9, 20, 4, 16, 1, 9, 14, 9, 20, 1, 19, 10, 1, 18, 15, 19, 17, 1, 12, 1, 12, 15, 19, 19, 15, 19, 11, 13, 13, 15, 12, 14, 4, 17, 12, 14, 4, 15, 20, 20, 9, 15, 13, 19, 15, 13, 13, 19, 19, 10, 9, 11, 13, 17, 13, 15, 13, 15, 15, 17, 17, 17, 13, 7, 18, 11, 11, 13, 7, 7, 7, 18, 11, 10, 19, 11, 7, 11, 18, 7, 2, 18, 11, 11, 11, 10, 3, 3, 7, 18, 19, 18, 7, 2, 3, 18, 5, 2, 5, 5, 5, 5, 7, 2, 5, 2, 12, 5, 18, 7, 2, 3, 2, 3, 3, 3, 12, 16, 6, 6, 16, 12, 6, 16, 16, 6, 16, 6, 5, 2, 18, 5, 2, 10, 5, 2, 8, 10, 10, 14, 8, 6, 8, 8, 4, 4, 17, 16, 8, 6, 16, 3, 8, 6, 16, 16, 6, 8, 8, 17, 3, 8, 3, 8, 6]
bestever    1951    in generation 1241
[9, 14, 20, 20, 20, 20, 9, 9, 9, 1, 1, 17, 17, 4, 1, 20, 4, 10, 4, 14, 14, 10, 12, 12, 1, 4, 14, 14, 10, 12, 1, 4, 20, 9, 14, 9, 20, 4, 16, 1, 9, 14, 9, 20, 1, 19, 10, 1, 18, 15, 19, 17, 1, 12, 1, 12, 15, 19, 19, 15, 19, 11, 13, 13, 15, 12, 14, 4, 17, 12, 14, 4, 15, 20, 20, 9, 15, 13, 19, 15, 13, 13, 19, 19, 10, 9, 11, 13, 17, 13, 15, 13, 15, 15, 17, 17, 17, 13, 7, 18, 11, 11, 13, 7, 7, 7, 18, 11, 10, 19, 11, 7, 11, 18, 7, 2, 18, 11, 11, 11, 10, 3, 3, 7, 18, 19, 18, 7, 3, 5, 2, 5, 5, 5, 5, 7, 2, 5, 2, 12, 5, 18, 2, 18, 7, 2, 3, 2, 3, 3, 3, 12, 16, 6, 6, 16, 12, 16, 6, 16, 6, 5, 2, 18, 5, 2, 10, 5, 2, 8, 10, 10, 14, 8, 6, 6, 16, 8, 8, 4, 4, 17, 16, 8, 6, 16, 3, 8, 6, 16, 16, 6, 8, 8, 17, 3, 8, 3, 8, 6]
bestever    1949    in generation 1351
[9, 14, 20, 20, 20, 20, 9, 9, 9, 1, 1, 17, 17, 4, 1, 20, 10, 14, 14, 10, 12, 1, 4, 14, 10, 12, 1, 4, 20, 9, 14, 9, 20, 4, 16, 1, 9, 14, 9, 20, 1, 19, 10, 1, 18, 15, 19, 17, 1, 12, 1, 12, 4, 12, 14, 4, 15, 19, 19, 15, 19, 11, 13, 13, 15, 12, 14, 4, 17, 12, 14, 4, 15, 20, 20, 9, 15, 13, 19, 15, 13, 13, 19, 19, 10, 11, 13, 17, 13, 15, 13, 15, 15, 17, 17, 17, 13, 7, 18, 11, 11, 7, 13, 9, 7, 7, 18, 11, 10, 19, 11, 7, 11, 18, 7, 2, 18, 11, 11, 11, 10, 3, 3, 7, 18, 19, 17, 18, 7, 3, 5, 2, 5, 5, 5, 7, 5, 2, 12, 5, 18, 2, 18, 5, 2, 7, 2, 3, 2, 3, 12, 16, 6, 6, 16, 12, 6, 6, 5, 2, 18, 5, 2, 10, 5, 2, 8, 10, 10, 14, 6, 16, 16, 16, 4, 4, 16, 6, 8, 8, 3, 6, 16, 6, 6, 16, 16, 8, 3, 8, 3, 8, 8, 8, 17, 3, 8, 3, 8, 6]
bestever    1948    in generation 1558
[14, 9, 9, 20, 9, 20, 20, 20, 9, 1, 1, 17, 17, 4, 1, 20, 10, 14, 14, 10, 12, 1, 4, 14, 10, 12, 1, 4, 20, 9, 14, 9, 20, 4, 16, 1, 9, 14, 9, 20, 1, 19, 10, 1, 18, 15, 19, 17, 1, 12, 1, 12, 4, 12, 14, 4, 15, 19, 19, 15, 19, 11, 13, 13, 15, 12, 14, 4, 17, 12, 14, 4, 15, 20, 20, 9, 15, 13, 19, 15, 13, 13, 19, 19, 10, 11, 13, 17, 13, 15, 13, 15, 15, 17, 17, 17, 13, 7, 18, 11, 11, 7, 13, 9, 7, 7, 18, 11, 10, 19, 11, 7, 11, 18, 7, 2, 18, 11, 11, 11, 10, 7, 18, 19, 17, 18, 7, 3, 5, 2, 5, 5, 5, 7, 5, 12, 5, 18, 18, 5, 2, 7, 2, 3, 2, 3, 2, 3, 2, 3, 12, 16, 6, 8, 3, 8, 8, 8, 17, 3, 6, 16, 12, 6, 6, 5, 2, 18, 5, 2, 10, 5, 2, 8, 10, 10, 14, 6, 16, 16, 16, 4, 4, 16, 8, 8, 3, 6, 6, 16, 6, 6, 16, 16, 8, 3, 8, 3, 8, 6]
bestever    1943    in generation 1719
[14, 9, 9, 20, 9, 20, 20, 20, 9, 1, 1, 17, 17, 4, 1, 20, 10, 14, 14, 10, 12, 1, 4, 14, 10, 12, 1, 4, 20, 9, 14, 9, 20, 4, 16, 1, 9, 14, 20, 1, 19, 10, 1, 18, 15, 19, 17, 1, 12, 1, 12, 4, 12, 4, 14, 15, 19, 19, 15, 19, 11, 13, 13, 15, 12, 14, 4, 17, 12, 4, 15, 20, 20, 9, 15, 13, 19, 15, 13, 13, 19, 19, 9, 14, 10, 11, 13, 17, 13, 15, 13, 15, 15, 17, 17, 17, 13, 7, 18, 11, 11, 7, 13, 9, 7, 7, 18, 11, 10, 19, 11, 7, 11, 18, 7, 2, 18, 11, 11, 11, 10, 7, 18, 19, 17, 18, 7, 3, 5, 2, 5, 5, 5, 7, 5, 12, 5, 18, 18, 5, 2, 7, 2, 3, 2, 3, 2, 3, 2, 5, 16, 6, 17, 16, 12, 5, 8, 3, 6, 6, 2, 18, 12, 2, 5, 2, 10, 10, 10, 3, 16, 16, 4, 8, 6, 4, 16, 8, 16, 8, 8, 3, 6, 6, 16, 6, 6, 16, 16, 8, 8, 3, 8, 6, 3, 8, 14, 6, 3, 8]
bestever    1914    in generation 1806
[14, 9, 20, 9, 20, 20, 9, 1, 1, 17, 17, 4, 1, 20, 10, 14, 14, 10, 12, 1, 4, 14, 10, 12, 1, 4, 20, 9, 14, 9, 20, 4, 16, 1, 9, 14, 20, 1, 19, 10, 1, 18, 15, 19, 17, 1, 12, 1, 12, 4, 12, 4, 14, 15, 19, 19, 15, 19, 11, 13, 13, 20, 9, 15, 12, 14, 4, 17, 12, 4, 15, 20, 20, 9, 15, 13, 19, 15, 13, 13, 19, 19, 9, 14, 10, 11, 13, 17, 13, 15, 15, 15, 17, 17, 13, 17, 13, 7, 18, 11, 11, 7, 13, 9, 7, 7, 18, 11, 10, 19, 11, 7, 11, 18, 7, 18, 11, 11, 11, 10, 7, 18, 19, 17, 18, 7, 3, 5, 5, 5, 5, 7, 5, 12, 18, 5, 2, 2, 3, 2, 3, 2, 2, 3, 2, 5, 2, 5, 12, 5, 2, 12, 2, 5, 2, 10, 10, 10, 16, 16, 4, 8, 3, 6, 6, 3, 16, 16, 6, 6, 8, 4, 16, 8, 16, 8, 8, 3, 6, 6, 16, 6, 6, 16, 16, 8, 8, 3, 8, 6, 14, 18, 7, 18, 17, 3, 3, 8, 6, 8]
bestever    1913    in generation 1861
[14, 9, 20, 9, 20, 20, 9, 1, 1, 17, 17, 4, 1, 20, 10, 14, 14, 10, 12, 1, 4, 14, 10, 12, 1, 4, 20, 9, 14, 9, 20, 4, 16, 1, 9, 14, 20, 1, 19, 10, 1, 18, 15, 19, 17, 1, 12, 1, 12, 4, 12, 4, 14, 15, 19, 19, 15, 19, 11, 13, 13, 20, 9, 15, 12, 14, 4, 17, 12, 4, 15, 20, 20, 9, 13, 19, 13, 13, 19, 19, 9, 15, 15, 14, 10, 11, 13, 17, 13, 15, 15, 15, 17, 17, 13, 17, 13, 7, 18, 11, 11, 7, 13, 9, 7, 7, 18, 11, 10, 19, 11, 7, 11, 18, 7, 18, 11, 11, 11, 10, 7, 18, 19, 17, 18, 7, 3, 5, 5, 5, 7, 5, 12, 18, 5, 3, 3, 2, 2, 2, 5, 2, 3, 2, 5, 2, 2, 5, 12, 5, 2, 12, 2, 5, 2, 10, 10, 10, 16, 16, 4, 8, 3, 6, 6, 16, 16, 6, 6, 8, 4, 16, 8, 16, 3, 6, 6, 16, 6, 6, 16, 16, 8, 8, 3, 8, 8, 3, 8, 6, 14, 18, 7, 18, 17, 3, 3, 8, 6, 8]
bestever    1912    in generation 2677
[9, 20, 9, 20, 20, 9, 1, 1, 17, 17, 4, 1, 20, 14, 14, 12, 1, 4, 14, 12, 1, 4, 20, 9, 14, 9, 20, 4, 16, 1, 9, 14, 1, 19, 10, 1, 15, 19, 17, 1, 12, 1, 12, 4, 12, 4, 20, 14, 15, 19, 19, 15, 19, 11, 13, 13, 20, 9, 15, 12, 14, 4, 17, 12, 4, 15, 20, 20, 9, 13, 19, 13, 13, 19, 19, 9, 10, 10, 10, 3, 15, 15, 14, 10, 11, 13, 17, 13, 15, 15, 15, 17, 17, 13, 17, 13, 7, 11, 11, 13, 9, 18, 11, 10, 19, 11, 7, 11, 7, 7, 18, 18, 7, 18, 18, 7, 11, 11, 11, 7, 18, 19, 17, 3, 16, 5, 5, 5, 7, 12, 18, 7, 18, 5, 10, 2, 2, 2, 5, 2, 2, 5, 2, 5, 5, 2, 12, 2, 5, 12, 2, 5, 2, 10, 10, 10, 4, 6, 6, 16, 16, 16, 16, 3, 4, 16, 6, 6, 6, 6, 16, 16, 8, 6, 3, 8, 16, 8, 8, 3, 3, 14, 18, 17, 7, 18, 3, 8, 3, 6, 6, 6, 8, 8, 8, 3, 8, 3, 8, 14]
bestever    1863    in generation 2732
[9, 20, 9, 20, 20, 9, 1, 1, 17, 17, 4, 1, 20, 14, 14, 12, 1, 4, 14, 12, 1, 4, 20, 9, 14, 9, 20, 4, 16, 1, 9, 14, 1, 19, 10, 1, 15, 19, 17, 1, 12, 1, 12, 4, 12, 4, 20, 14, 15, 19, 19, 15, 19, 11, 13, 13, 20, 9, 15, 12, 14, 4, 17, 12, 4, 15, 20, 20, 9, 13, 19, 13, 13, 19, 19, 9, 10, 10, 10, 3, 15, 15, 14, 10, 11, 13, 17, 13, 15, 15, 15, 17, 17, 13, 17, 13, 7, 11, 11, 13, 9, 18, 11, 10, 19, 11, 7, 11, 7, 7, 18, 18, 7, 18, 11, 11, 11, 7, 18, 18, 7, 19, 17, 3, 16, 5, 5, 5, 7, 12, 18, 7, 18, 5, 10, 2, 2, 2, 5, 2, 2, 5, 2, 5, 5, 2, 12, 2, 5, 12, 2, 5, 2, 10, 10, 10, 4, 6, 6, 16, 16, 16, 16, 3, 4, 16, 6, 8, 8, 8, 3, 3, 8, 8, 8, 8, 3, 14, 14, 17, 18, 7, 18, 6, 8, 6, 3, 8, 8, 3, 3, 6, 6, 16, 16, 3, 16, 6, 6, 6]
bestever    1862    in generation 3004
[9, 9, 20, 20, 20, 9, 1, 1, 17, 17, 4, 1, 20, 14, 14, 12, 1, 4, 14, 12, 1, 4, 20, 9, 14, 9, 20, 4, 16, 1, 9, 14, 1, 19, 10, 1, 15, 19, 17, 1, 12, 1, 12, 4, 12, 4, 20, 14, 15, 19, 19, 15, 19, 11, 13, 13, 20, 9, 15, 12, 14, 4, 17, 12, 4, 15, 20, 20, 9, 13, 19, 13, 13, 19, 19, 9, 10, 10, 10, 15, 15, 14, 10, 11, 13, 17, 13, 15, 15, 15, 17, 17, 13, 17, 13, 7, 11, 11, 13, 9, 11, 10, 19, 11, 7, 11, 7, 18, 7, 18, 11, 11, 11, 7, 18, 18, 7, 18, 7, 19, 17, 3, 16, 5, 5, 12, 18, 7, 18, 7, 18, 10, 2, 2, 5, 2, 5, 5, 2, 2, 5, 2, 5, 5, 2, 12, 2, 5, 12, 2, 5, 2, 10, 10, 10, 4, 3, 4, 8, 3, 8, 8, 8, 8, 8, 3, 14, 14, 17, 8, 18, 7, 18, 8, 6, 3, 3, 8, 8, 3, 3, 6, 6, 16, 6, 16, 16, 3, 16, 6, 6, 16, 6, 6, 3, 6, 6, 16, 16, 16]
bestever    1852    in generation 3691
[9, 9, 20, 20, 20, 9, 1, 1, 17, 17, 4, 1, 20, 14, 14, 12, 1, 4, 14, 12, 1, 4, 20, 9, 14, 9, 20, 4, 1, 9, 14, 1, 19, 10, 1, 15, 19, 17, 1, 12, 1, 12, 4, 12, 4, 15, 14, 20, 19, 19, 15, 19, 11, 13, 13, 20, 9, 15, 12, 14, 4, 17, 12, 4, 15, 20, 20, 9, 13, 19, 13, 13, 19, 19, 9, 10, 10, 10, 15, 15, 14, 10, 11, 13, 17, 13, 15, 15, 15, 17, 17, 5, 13, 17, 13, 7, 11, 11, 13, 9, 11, 10, 19, 11, 7, 11, 7, 18, 7, 10, 18, 11, 11, 7, 18, 18, 7, 18, 19, 17, 5, 5, 12, 7, 18, 7, 18, 7, 18, 2, 2, 2, 5, 5, 2, 3, 6, 16, 5, 2, 12, 2, 5, 2, 5, 2, 5, 12, 2, 5, 2, 10, 10, 10, 4, 11, 4, 8, 8, 8, 8, 3, 14, 8, 17, 8, 18, 7, 6, 18, 8, 8, 3, 16, 14, 3, 16, 16, 16, 16, 6, 3, 3, 3, 8, 3, 3, 6, 8, 6, 6, 6, 16, 6, 6, 16, 16, 3, 6, 16]
bestever    1842    in generation 5958
[20, 20, 9, 20, 9, 9, 1, 1, 17, 17, 4, 1, 20, 14, 14, 12, 1, 4, 14, 12, 1, 4, 20, 9, 14, 9, 20, 4, 1, 9, 14, 1, 19, 10, 1, 17, 1, 12, 1, 12, 4, 12, 4, 14, 20, 19, 19, 15, 15, 15, 19, 13, 20, 14, 4, 17, 12, 4, 15, 7, 20, 9, 19, 20, 9, 9, 19, 13, 13, 19, 19, 13, 10, 15, 13, 15, 15, 14, 10, 11, 15, 15, 15, 5, 13, 17, 13, 17, 17, 13, 17, 13, 7, 10, 7, 11, 13, 10, 11, 11, 9, 11, 10, 3, 7, 18, 19, 11, 7, 12, 11, 7, 10, 11, 11, 19, 4, 5, 7, 12, 7, 12, 7, 18, 5, 18, 18, 18, 18, 18, 5, 5, 12, 5, 18, 2, 5, 2, 5, 2, 2, 2, 5, 2, 5, 2, 2, 2, 2, 10, 10, 10, 4, 11, 17, 17, 8, 8, 8, 18, 8, 7, 8, 14, 18, 8, 14, 8, 8, 6, 6, 3, 3, 3, 6, 6, 6, 3, 16, 6, 6, 6, 16, 16, 16, 3, 3, 3, 8, 16, 16, 6, 3, 16, 8, 16, 16, 6, 3, 16]
bestever    1841    in generation 9118
[20, 20, 9, 20, 9, 9, 1, 1, 17, 17, 1, 4, 20, 14, 14, 1, 4, 14, 12, 1, 20, 9, 14, 9, 20, 4, 1, 9, 14, 1, 19, 10, 1, 17, 12, 1, 12, 4, 12, 4, 20, 19, 19, 15, 4, 12, 15, 15, 19, 20, 14, 20, 4, 17, 12, 8, 4, 15, 20, 14, 19, 9, 19, 9, 9, 13, 13, 19, 19, 13, 10, 13, 15, 13, 15, 15, 14, 15, 15, 15, 7, 17, 13, 17, 13, 17, 13, 17, 10, 11, 13, 10, 7, 5, 11, 11, 9, 11, 10, 10, 1, 11, 11, 19, 7, 12, 11, 10, 11, 11, 19, 7, 7, 12, 7, 7, 7, 7, 12, 18, 18, 18, 18, 5, 12, 5, 5, 18, 18, 5, 18, 5, 18, 4, 5, 2, 5, 3, 5, 5, 2, 2, 2, 2, 2, 2, 2, 2, 2, 10, 10, 10, 4, 8, 18, 7, 14, 11, 14, 8, 3, 3, 8, 3, 6, 3, 6, 6, 6, 3, 8, 6, 3, 8, 6, 6, 6, 6, 3, 16, 16, 3, 6, 3, 16, 16, 16, 16, 16, 16, 16, 16, 8, 8, 17, 17, 13, 8, 18, 8]
bestever    1839    in generation 9299
[20, 20, 9, 9, 20, 9, 9, 1, 1, 17, 17, 1, 4, 20, 14, 14, 1, 4, 14, 12, 1, 20, 9, 14, 9, 20, 4, 1, 9, 14, 1, 19, 10, 1, 17, 12, 1, 12, 4, 12, 4, 20, 19, 19, 15, 4, 12, 15, 15, 19, 20, 14, 20, 4, 17, 12, 8, 4, 15, 20, 14, 19, 9, 19, 9, 9, 13, 13, 19, 19, 13, 10, 13, 15, 13, 15, 15, 14, 15, 15, 15, 7, 17, 13, 17, 13, 17, 13, 17, 10, 11, 13, 10, 7, 5, 11, 11, 11, 10, 10, 1, 11, 11, 19, 7, 12, 11, 10, 11, 11, 19, 7, 7, 12, 7, 7, 7, 7, 12, 18, 18, 18, 18, 5, 12, 5, 5, 18, 18, 5, 18, 5, 18, 4, 5, 2, 5, 3, 5, 5, 2, 2, 2, 2, 2, 2, 2, 2, 2, 10, 10, 10, 4, 7, 14, 11, 14, 8, 3, 3, 6, 3, 6, 3, 6, 6, 6, 3, 6, 3, 6, 6, 6, 3, 8, 16, 16, 3, 6, 3, 16, 16, 16, 16, 16, 16, 16, 16, 17, 18, 8, 8, 8, 13, 18, 8, 8, 8, 8, 17]
